
Gurobi 5.6.3 (win64) logging started 08/03/15 10:06:13


Gurobi 5.6.3 (win64) logging started 08/03/15 10:06:32


Gurobi 5.6.3 (win64) logging started 08/03/15 10:08:18


Gurobi 5.6.3 (win64) logging started 08/03/15 10:13:42


Gurobi 5.6.3 (win64) logging started 08/03/15 10:15:12


Gurobi 5.6.3 (win64) logging started 08/03/15 10:21:52


Gurobi 5.6.3 (win64) logging started 08/03/15 10:23:04


Gurobi 5.6.3 (win64) logging started 08/03/15 10:27:52


Gurobi 5.6.3 (win64) logging started 08/03/15 10:34:40


Gurobi 5.6.3 (win64) logging started 08/03/15 10:38:02


Gurobi 5.6.3 (win64) logging started 08/03/15 10:40:08


Gurobi 5.6.3 (win64) logging started 08/03/15 10:44:18

